regression/regression.dzn
num_nodes = 8;
num_types = 3;
dependencies = [|
1,1|				% 0
1,1|1,1|1,1|1,1|	% 1,2,3,4
2,3|4,5|			% 5,6
6,7|];				% 7

types = [1, % 1 = free, 2 = add, 3 = mul
3,3,3,3,
2,2,
2];

cycles = [0,
1,2];

resources = [1,
1,1];