regression/regression.fzn
array [1..2] of int: X_INTRODUCED_10 = [1,1];
array [1..2] of int: X_INTRODUCED_12 = [1,-1];
array [1..3] of int: X_INTRODUCED_51 = [1,1,1];
array [1..2] of int: X_INTRODUCED_95 = [-1,1];
var 0..5000: X_INTRODUCED_0;
var 0..5000: X_INTRODUCED_1;
var 0..5000: X_INTRODUCED_2;
var 0..5000: X_INTRODUCED_3;
var 0..5000: X_INTRODUCED_4;
var 0..5000: X_INTRODUCED_5;
var 0..5000: X_INTRODUCED_6;
var 0..5000: X_INTRODUCED_7;
var int: result:: output_var;
var bool: X_INTRODUCED_13 ::var_is_introduced :: is_defined_var;
var bool: X_INTRODUCED_14 ::var_is_introduced :: is_defined_var;
var bool: X_INTRODUCED_15 ::var_is_introduced :: is_defined_var;
var 0..1: X_INTRODUCED_16 ::var_is_introduced :: is_defined_var;
var bool: X_INTRODUCED_18 ::var_is_introduced :: is_defined_var;
var bool: X_INTRODUCED_19 ::var_is_introduced :: is_defined_var;
var bool: X_INTRODUCED_20 ::var_is_introduced :: is_defined_var;
var 0..1: X_INTRODUCED_21 ::var_is_introduced :: is_defined_var;
var bool: X_INTRODUCED_25 ::var_is_introduced :: is_defined_var;
var bool: X_INTRODUCED_26 ::var_is_introduced :: is_defined_var;
var bool: X_INTRODUCED_27 ::var_is_introduced :: is_defined_var;
var 0..1: X_INTRODUCED_28 ::var_is_introduced :: is_defined_var;
var bool: X_INTRODUCED_35 ::var_is_introduced :: is_defined_var;
var bool: X_INTRODUCED_36 ::var_is_introduced :: is_defined_var;
var bool: X_INTRODUCED_37 ::var_is_introduced :: is_defined_var;
var 0..1: X_INTRODUCED_38 ::var_is_introduced :: is_defined_var;
var bool: X_INTRODUCED_40 ::var_is_introduced :: is_defined_var;
var bool: X_INTRODUCED_41 ::var_is_introduced :: is_defined_var;
var bool: X_INTRODUCED_42 ::var_is_introduced :: is_defined_var;
var 0..1: X_INTRODUCED_43 ::var_is_introduced :: is_defined_var;
var bool: X_INTRODUCED_45 ::var_is_introduced :: is_defined_var;
var bool: X_INTRODUCED_46 ::var_is_introduced :: is_defined_var;
var bool: X_INTRODUCED_47 ::var_is_introduced :: is_defined_var;
var 0..1: X_INTRODUCED_48 ::var_is_introduced :: is_defined_var;
var bool: X_INTRODUCED_53 ::var_is_introduced :: is_defined_var;
var bool: X_INTRODUCED_54 ::var_is_introduced :: is_defined_var;
var bool: X_INTRODUCED_55 ::var_is_introduced :: is_defined_var;
var 0..1: X_INTRODUCED_56 ::var_is_introduced :: is_defined_var;
var bool: X_INTRODUCED_57 ::var_is_introduced :: is_defined_var;
var bool: X_INTRODUCED_58 ::var_is_introduced :: is_defined_var;
var bool: X_INTRODUCED_59 ::var_is_introduced :: is_defined_var;
var 0..1: X_INTRODUCED_60 ::var_is_introduced :: is_defined_var;
var bool: X_INTRODUCED_61 ::var_is_introduced :: is_defined_var;
var bool: X_INTRODUCED_62 ::var_is_introduced :: is_defined_var;
var bool: X_INTRODUCED_63 ::var_is_introduced :: is_defined_var;
var 0..1: X_INTRODUCED_64 ::var_is_introduced :: is_defined_var;
var bool: X_INTRODUCED_67 ::var_is_introduced :: is_defined_var;
var bool: X_INTRODUCED_68 ::var_is_introduced :: is_defined_var;
var bool: X_INTRODUCED_69 ::var_is_introduced :: is_defined_var;
var 0..1: X_INTRODUCED_70 ::var_is_introduced :: is_defined_var;
var bool: X_INTRODUCED_71 ::var_is_introduced :: is_defined_var;
var bool: X_INTRODUCED_72 ::var_is_introduced :: is_defined_var;
var bool: X_INTRODUCED_73 ::var_is_introduced :: is_defined_var;
var 0..1: X_INTRODUCED_74 ::var_is_introduced :: is_defined_var;
var bool: X_INTRODUCED_75 ::var_is_introduced :: is_defined_var;
var bool: X_INTRODUCED_76 ::var_is_introduced :: is_defined_var;
var bool: X_INTRODUCED_77 ::var_is_introduced :: is_defined_var;
var 0..1: X_INTRODUCED_78 ::var_is_introduced :: is_defined_var;
var bool: X_INTRODUCED_81 ::var_is_introduced :: is_defined_var;
var bool: X_INTRODUCED_82 ::var_is_introduced :: is_defined_var;
var bool: X_INTRODUCED_83 ::var_is_introduced :: is_defined_var;
var 0..1: X_INTRODUCED_84 ::var_is_introduced :: is_defined_var;
var bool: X_INTRODUCED_85 ::var_is_introduced :: is_defined_var;
var bool: X_INTRODUCED_86 ::var_is_introduced :: is_defined_var;
var bool: X_INTRODUCED_87 ::var_is_introduced :: is_defined_var;
var 0..1: X_INTRODUCED_88 ::var_is_introduced :: is_defined_var;
var bool: X_INTRODUCED_89 ::var_is_introduced :: is_defined_var;
var bool: X_INTRODUCED_90 ::var_is_introduced :: is_defined_var;
var bool: X_INTRODUCED_91 ::var_is_introduced :: is_defined_var;
var 0..1: X_INTRODUCED_92 ::var_is_introduced :: is_defined_var;
array [1..8] of var int: nodes:: output_array([1..8]) = [X_INTRODUCED_0,X_INTRODUCED_1,X_INTRODUCED_2,X_INTRODUCED_3,X_INTRODUCED_4,X_INTRODUCED_5,X_INTRODUCED_6,X_INTRODUCED_7];
constraint int_lin_le(X_INTRODUCED_10,[X_INTRODUCED_16,X_INTRODUCED_21],0);
constraint int_lin_le(X_INTRODUCED_10,[X_INTRODUCED_16,X_INTRODUCED_28],0);
constraint int_lin_le(X_INTRODUCED_10,[X_INTRODUCED_21,X_INTRODUCED_28],0);
constraint int_lin_le(X_INTRODUCED_51,[X_INTRODUCED_38,X_INTRODUCED_43,X_INTRODUCED_48],0);
constraint int_lin_le(X_INTRODUCED_51,[X_INTRODUCED_56,X_INTRODUCED_60,X_INTRODUCED_64],0);
constraint int_lin_le(X_INTRODUCED_51,[X_INTRODUCED_70,X_INTRODUCED_74,X_INTRODUCED_78],0);
constraint int_lin_le(X_INTRODUCED_51,[X_INTRODUCED_84,X_INTRODUCED_88,X_INTRODUCED_92],0);
constraint int_lin_le(X_INTRODUCED_95,[X_INTRODUCED_1,X_INTRODUCED_0],0);
constraint int_lin_le(X_INTRODUCED_95,[X_INTRODUCED_2,X_INTRODUCED_0],0);
constraint int_lin_le(X_INTRODUCED_95,[X_INTRODUCED_3,X_INTRODUCED_0],0);
constraint int_lin_le(X_INTRODUCED_95,[X_INTRODUCED_4,X_INTRODUCED_0],0);
constraint int_lin_le(X_INTRODUCED_95,[X_INTRODUCED_5,X_INTRODUCED_2],-2);
constraint int_lin_le(X_INTRODUCED_95,[X_INTRODUCED_5,X_INTRODUCED_1],-2);
constraint int_lin_le(X_INTRODUCED_95,[X_INTRODUCED_6,X_INTRODUCED_4],-2);
constraint int_lin_le(X_INTRODUCED_95,[X_INTRODUCED_6,X_INTRODUCED_3],-2);
constraint int_lin_le(X_INTRODUCED_95,[X_INTRODUCED_7,X_INTRODUCED_6],-1);
constraint int_lin_le(X_INTRODUCED_95,[X_INTRODUCED_7,X_INTRODUCED_5],-1);
constraint int_lin_le(X_INTRODUCED_95,[result,X_INTRODUCED_1],-2);
constraint int_lin_le(X_INTRODUCED_95,[result,X_INTRODUCED_2],-2);
constraint int_lin_le(X_INTRODUCED_95,[result,X_INTRODUCED_3],-2);
constraint int_lin_le(X_INTRODUCED_95,[result,X_INTRODUCED_4],-2);
constraint int_lin_le(X_INTRODUCED_95,[result,X_INTRODUCED_5],-1);
constraint int_lin_le(X_INTRODUCED_95,[result,X_INTRODUCED_6],-1);
constraint int_lin_le(X_INTRODUCED_95,[result,X_INTRODUCED_7],-1);
constraint int_lin_le_reif(X_INTRODUCED_12,[X_INTRODUCED_5,X_INTRODUCED_6],0,X_INTRODUCED_13):: defines_var(X_INTRODUCED_13);
constraint int_lin_le_reif(X_INTRODUCED_12,[X_INTRODUCED_6,X_INTRODUCED_5],0,X_INTRODUCED_14):: defines_var(X_INTRODUCED_14);
constraint array_bool_and([X_INTRODUCED_13,X_INTRODUCED_14],X_INTRODUCED_15):: defines_var(X_INTRODUCED_15);
constraint bool2int(X_INTRODUCED_15,X_INTRODUCED_16):: defines_var(X_INTRODUCED_16);
constraint int_lin_le_reif(X_INTRODUCED_12,[X_INTRODUCED_5,X_INTRODUCED_7],0,X_INTRODUCED_18):: defines_var(X_INTRODUCED_18);
constraint int_lin_le_reif(X_INTRODUCED_12,[X_INTRODUCED_7,X_INTRODUCED_5],0,X_INTRODUCED_19):: defines_var(X_INTRODUCED_19);
constraint array_bool_and([X_INTRODUCED_18,X_INTRODUCED_19],X_INTRODUCED_20):: defines_var(X_INTRODUCED_20);
constraint bool2int(X_INTRODUCED_20,X_INTRODUCED_21):: defines_var(X_INTRODUCED_21);
constraint int_lin_le_reif(X_INTRODUCED_12,[X_INTRODUCED_6,X_INTRODUCED_7],0,X_INTRODUCED_25):: defines_var(X_INTRODUCED_25);
constraint int_lin_le_reif(X_INTRODUCED_12,[X_INTRODUCED_7,X_INTRODUCED_6],0,X_INTRODUCED_26):: defines_var(X_INTRODUCED_26);
constraint array_bool_and([X_INTRODUCED_25,X_INTRODUCED_26],X_INTRODUCED_27):: defines_var(X_INTRODUCED_27);
constraint bool2int(X_INTRODUCED_27,X_INTRODUCED_28):: defines_var(X_INTRODUCED_28);
constraint int_lin_le_reif(X_INTRODUCED_12,[X_INTRODUCED_1,X_INTRODUCED_2],1,X_INTRODUCED_35):: defines_var(X_INTRODUCED_35);
constraint int_lin_le_reif(X_INTRODUCED_12,[X_INTRODUCED_2,X_INTRODUCED_1],0,X_INTRODUCED_36):: defines_var(X_INTRODUCED_36);
constraint array_bool_and([X_INTRODUCED_35,X_INTRODUCED_36],X_INTRODUCED_37):: defines_var(X_INTRODUCED_37);
constraint bool2int(X_INTRODUCED_37,X_INTRODUCED_38):: defines_var(X_INTRODUCED_38);
constraint int_lin_le_reif(X_INTRODUCED_12,[X_INTRODUCED_1,X_INTRODUCED_3],1,X_INTRODUCED_40):: defines_var(X_INTRODUCED_40);
constraint int_lin_le_reif(X_INTRODUCED_12,[X_INTRODUCED_3,X_INTRODUCED_1],0,X_INTRODUCED_41):: defines_var(X_INTRODUCED_41);
constraint array_bool_and([X_INTRODUCED_40,X_INTRODUCED_41],X_INTRODUCED_42):: defines_var(X_INTRODUCED_42);
constraint bool2int(X_INTRODUCED_42,X_INTRODUCED_43):: defines_var(X_INTRODUCED_43);
constraint int_lin_le_reif(X_INTRODUCED_12,[X_INTRODUCED_1,X_INTRODUCED_4],1,X_INTRODUCED_45):: defines_var(X_INTRODUCED_45);
constraint int_lin_le_reif(X_INTRODUCED_12,[X_INTRODUCED_4,X_INTRODUCED_1],0,X_INTRODUCED_46):: defines_var(X_INTRODUCED_46);
constraint array_bool_and([X_INTRODUCED_45,X_INTRODUCED_46],X_INTRODUCED_47):: defines_var(X_INTRODUCED_47);
constraint bool2int(X_INTRODUCED_47,X_INTRODUCED_48):: defines_var(X_INTRODUCED_48);
constraint int_lin_le_reif(X_INTRODUCED_12,[X_INTRODUCED_2,X_INTRODUCED_1],1,X_INTRODUCED_53):: defines_var(X_INTRODUCED_53);
constraint int_lin_le_reif(X_INTRODUCED_12,[X_INTRODUCED_1,X_INTRODUCED_2],0,X_INTRODUCED_54):: defines_var(X_INTRODUCED_54);
constraint array_bool_and([X_INTRODUCED_53,X_INTRODUCED_54],X_INTRODUCED_55):: defines_var(X_INTRODUCED_55);
constraint bool2int(X_INTRODUCED_55,X_INTRODUCED_56):: defines_var(X_INTRODUCED_56);
constraint int_lin_le_reif(X_INTRODUCED_12,[X_INTRODUCED_2,X_INTRODUCED_3],1,X_INTRODUCED_57):: defines_var(X_INTRODUCED_57);
constraint int_lin_le_reif(X_INTRODUCED_12,[X_INTRODUCED_3,X_INTRODUCED_2],0,X_INTRODUCED_58):: defines_var(X_INTRODUCED_58);
constraint array_bool_and([X_INTRODUCED_57,X_INTRODUCED_58],X_INTRODUCED_59):: defines_var(X_INTRODUCED_59);
constraint bool2int(X_INTRODUCED_59,X_INTRODUCED_60):: defines_var(X_INTRODUCED_60);
constraint int_lin_le_reif(X_INTRODUCED_12,[X_INTRODUCED_2,X_INTRODUCED_4],1,X_INTRODUCED_61):: defines_var(X_INTRODUCED_61);
constraint int_lin_le_reif(X_INTRODUCED_12,[X_INTRODUCED_4,X_INTRODUCED_2],0,X_INTRODUCED_62):: defines_var(X_INTRODUCED_62);
constraint array_bool_and([X_INTRODUCED_61,X_INTRODUCED_62],X_INTRODUCED_63):: defines_var(X_INTRODUCED_63);
constraint bool2int(X_INTRODUCED_63,X_INTRODUCED_64):: defines_var(X_INTRODUCED_64);
constraint int_lin_le_reif(X_INTRODUCED_12,[X_INTRODUCED_3,X_INTRODUCED_1],1,X_INTRODUCED_67):: defines_var(X_INTRODUCED_67);
constraint int_lin_le_reif(X_INTRODUCED_12,[X_INTRODUCED_1,X_INTRODUCED_3],0,X_INTRODUCED_68):: defines_var(X_INTRODUCED_68);
constraint array_bool_and([X_INTRODUCED_67,X_INTRODUCED_68],X_INTRODUCED_69):: defines_var(X_INTRODUCED_69);
constraint bool2int(X_INTRODUCED_69,X_INTRODUCED_70):: defines_var(X_INTRODUCED_70);
constraint int_lin_le_reif(X_INTRODUCED_12,[X_INTRODUCED_3,X_INTRODUCED_2],1,X_INTRODUCED_71):: defines_var(X_INTRODUCED_71);
constraint int_lin_le_reif(X_INTRODUCED_12,[X_INTRODUCED_2,X_INTRODUCED_3],0,X_INTRODUCED_72):: defines_var(X_INTRODUCED_72);
constraint array_bool_and([X_INTRODUCED_71,X_INTRODUCED_72],X_INTRODUCED_73):: defines_var(X_INTRODUCED_73);
constraint bool2int(X_INTRODUCED_73,X_INTRODUCED_74):: defines_var(X_INTRODUCED_74);
constraint int_lin_le_reif(X_INTRODUCED_12,[X_INTRODUCED_3,X_INTRODUCED_4],1,X_INTRODUCED_75):: defines_var(X_INTRODUCED_75);
constraint int_lin_le_reif(X_INTRODUCED_12,[X_INTRODUCED_4,X_INTRODUCED_3],0,X_INTRODUCED_76):: defines_var(X_INTRODUCED_76);
constraint array_bool_and([X_INTRODUCED_75,X_INTRODUCED_76],X_INTRODUCED_77):: defines_var(X_INTRODUCED_77);
constraint bool2int(X_INTRODUCED_77,X_INTRODUCED_78):: defines_var(X_INTRODUCED_78);
constraint int_lin_le_reif(X_INTRODUCED_12,[X_INTRODUCED_4,X_INTRODUCED_1],1,X_INTRODUCED_81):: defines_var(X_INTRODUCED_81);
constraint int_lin_le_reif(X_INTRODUCED_12,[X_INTRODUCED_1,X_INTRODUCED_4],0,X_INTRODUCED_82):: defines_var(X_INTRODUCED_82);
constraint array_bool_and([X_INTRODUCED_81,X_INTRODUCED_82],X_INTRODUCED_83):: defines_var(X_INTRODUCED_83);
constraint bool2int(X_INTRODUCED_83,X_INTRODUCED_84):: defines_var(X_INTRODUCED_84);
constraint int_lin_le_reif(X_INTRODUCED_12,[X_INTRODUCED_4,X_INTRODUCED_2],1,X_INTRODUCED_85):: defines_var(X_INTRODUCED_85);
constraint int_lin_le_reif(X_INTRODUCED_12,[X_INTRODUCED_2,X_INTRODUCED_4],0,X_INTRODUCED_86):: defines_var(X_INTRODUCED_86);
constraint array_bool_and([X_INTRODUCED_85,X_INTRODUCED_86],X_INTRODUCED_87):: defines_var(X_INTRODUCED_87);
constraint bool2int(X_INTRODUCED_87,X_INTRODUCED_88):: defines_var(X_INTRODUCED_88);
constraint int_lin_le_reif(X_INTRODUCED_12,[X_INTRODUCED_4,X_INTRODUCED_3],1,X_INTRODUCED_89):: defines_var(X_INTRODUCED_89);
constraint int_lin_le_reif(X_INTRODUCED_12,[X_INTRODUCED_3,X_INTRODUCED_4],0,X_INTRODUCED_90):: defines_var(X_INTRODUCED_90);
constraint array_bool_and([X_INTRODUCED_89,X_INTRODUCED_90],X_INTRODUCED_91):: defines_var(X_INTRODUCED_91);
constraint bool2int(X_INTRODUCED_91,X_INTRODUCED_92):: defines_var(X_INTRODUCED_92);
solve  minimize result;
